32
100
80	1
79	2
78	1
74	2
73	4
72	3
69	1
68	1
67	2
66	1
65	1
63	1
62	1
60	1
59	1
57	1
54	2
53	1
50	3
47	1
46	4
45	2
43	2
41	1
39	1
38	2
35	1
33	2
31	1
27	1
26	1
24	1
